
n_res = 8;
rcap = [75, 84, 77, 80, 864, 853, 767, 882];
rtype = [1, 1, 1, 1, 2, 2, 2, 2];
n_tasks = 50;
modes =  [{1, 2, 3, 4, 5, 6}, {7, 8, 9, 10, 11, 12}, {13, 14, 15, 16, 17, 18}, {19, 20, 21, 22, 23, 24}, {25, 26, 27, 28, 29, 30}, {31, 32, 33, 34, 35, 36}, {37, 38, 39, 40, 41, 42}, {43, 44, 45, 46, 47, 48}, {49, 50, 51, 52, 53, 54}, {55, 56, 57, 58, 59, 60}, {61, 62, 63, 64, 65, 66}, {67, 68, 69, 70, 71, 72}, {73, 74, 75, 76, 77, 78}, {79, 80, 81, 82, 83, 84}, {85, 86, 87, 88, 89, 90}, {91, 92, 93, 94, 95, 96}, {97, 98, 99, 100, 101, 102}, {103, 104, 105, 106, 107, 108}, {109, 110, 111, 112, 113, 114}, {115, 116, 117, 118, 119, 120}, {121, 122, 123, 124, 125, 126}, {127, 128, 129, 130, 131, 132}, {133, 134, 135, 136, 137, 138}, {139, 140, 141, 142, 143, 144}, {145, 146, 147, 148, 149, 150}, {151, 152, 153, 154, 155, 156}, {157, 158, 159, 160, 161, 162}, {163, 164, 165, 166, 167, 168}, {169, 170, 171, 172, 173, 174}, {175, 176, 177, 178, 179, 180}, {181, 182, 183, 184, 185, 186}, {187, 188, 189, 190, 191, 192}, {193, 194, 195, 196, 197, 198}, {199, 200, 201, 202, 203, 204}, {205, 206, 207, 208, 209, 210}, {211, 212, 213, 214, 215, 216}, {217, 218, 219, 220, 221, 222}, {223, 224, 225, 226, 227, 228}, {229, 230, 231, 232, 233, 234}, {235, 236, 237, 238, 239, 240}, {241, 242, 243, 244, 245, 246}, {247, 248, 249, 250, 251, 252}, {253, 254, 255, 256, 257, 258}, {259, 260, 261, 262, 263, 264}, {265, 266, 267, 268, 269, 270}, {271, 272, 273, 274, 275, 276}, {277, 278, 279, 280, 281, 282}, {283, 284, 285, 286, 287, 288}, {289, 290, 291, 292, 293, 294}, {295, 296, 297, 298, 299, 300}];
succ =  [{19, 15, 11, 8, 7}, {21, 4}, {21, 19, 15, 14, 13, 12}, {19, 15, 14, 12, 10}, {20, 19, 15, 14, 12}, {19, 13, 11}, {21, 13, 12}, {21, 17, 16, 13}, {19, 16, 14}, {17, 13}, {12}, {33, 22, 17, 16}, {25, 23, 22, 20, 18}, {33, 22, 18, 17}, {33, 23, 22, 18}, {25, 23, 18}, {32, 29, 26, 24, 23}, {36, 32, 29, 27, 26, 24}, {36, 32, 27, 26, 24}, {36, 33, 32, 26, 24}, {32, 29, 28, 23}, {37, 36, 35, 34, 32, 31}, {36, 34, 27}, {37, 30, 28}, {34, 30, 29}, {37, 28}, {37, 35, 31}, {39, 35, 34}, {50, 40, 37, 35}, {50, 39, 35}, {50, 48, 40, 39}, {50, 48, 47, 43, 39}, {50, 49, 48, 41, 38}, {50, 49, 48, 46, 40}, {49, 48, 41, 38}, {50, 49, 48, 47, 42, 41}, {48, 41, 38}, {47, 45, 43, 42}, {49, 42, 41}, {47, 43, 41}, {45, 44}, {46}, {44}, {}, {}, {}, {}, {}, {}, {}];
n_opt = 300;
dur = [3, 9, 10, 11, 22, 24, 4, 12, 15, 22, 27, 28, 8, 22, 24, 25, 26, 27, 5, 6, 7, 10, 18, 21, 14, 16, 21, 25, 26, 27, 4, 8, 9, 18, 22, 26, 15, 18, 23, 24, 25, 26, 12, 19, 20, 21, 22, 23, 1, 12, 20, 21, 22, 25, 8, 9, 15, 16, 19, 29, 3, 11, 14, 15, 25, 30, 4, 13, 14, 20, 25, 29, 2, 13, 21, 22, 25, 28, 5, 8, 9, 10, 17, 18, 9, 12, 15, 18, 26, 27, 3, 6, 8, 10, 18, 24, 11, 15, 19, 20, 25, 26, 6, 7, 13, 18, 22, 25, 1, 11, 19, 20, 27, 29, 7, 8, 19, 24, 25, 27, 3, 5, 6, 13, 18, 19, 5, 10, 12, 13, 14, 28, 4, 8, 11, 12, 20, 24, 1, 8, 13, 22, 24, 28, 6, 17, 22, 23, 25, 26, 2, 9, 10, 12, 14, 29, 3, 17, 18, 23, 28, 29, 1, 5, 9, 13, 19, 20, 14, 15, 19, 24, 26, 27, 1, 2, 9, 18, 19, 30, 11, 12, 15, 16, 19, 22, 8, 9, 14, 24, 26, 27, 8, 13, 14, 16, 17, 24, 7, 21, 22, 23, 24, 25, 7, 8, 12, 16, 17, 30, 4, 6, 9, 18, 23, 28, 3, 6, 9, 24, 26, 28, 3, 4, 5, 6, 10, 20, 1, 2, 11, 13, 18, 30, 8, 9, 11, 16, 25, 28, 6, 12, 14, 17, 20, 28, 3, 13, 15, 16, 17, 27, 11, 13, 14, 17, 19, 30, 1, 9, 10, 20, 22, 29, 11, 13, 23, 25, 27, 28, 5, 7, 8, 10, 26, 30, 2, 4, 9, 23, 27, 28, 3, 7, 23, 27, 28, 29, 6, 14, 16, 19, 28, 30, 1, 4, 16, 25, 26, 30];
rreq = [|20, 16, 15, 11, 10, 9, 23, 23, 22, 20, 19, 19, 25, 21, 16, 16, 9, 7, 7, 7, 7, 7, 7, 7, 18, 14, 11, 11, 8, 6, 9, 8, 6, 6, 2, 1, 22, 19, 18, 16, 14, 12, 23, 22, 22, 22, 22, 22, 26, 21, 19, 13, 8, 5, 25, 25, 23, 22, 19, 18, 22, 19, 18, 15, 12, 11, 13, 13, 13, 12, 12, 12, 16, 13, 12, 8, 8, 5, 21, 21, 19, 18, 18, 17, 14, 13, 13, 13, 13, 13, 24, 23, 23, 23, 22, 22, 7, 6, 4, 3, 3, 2, 9, 9, 9, 9, 9, 9, 16, 16, 13, 11, 9, 9, 15, 15, 12, 12, 11, 8, 28, 24, 21, 17, 14, 14, 25, 24, 24, 24, 24, 24, 6, 6, 5, 4, 3, 2, 14, 11, 10, 8, 6, 3, 20, 19, 19, 17, 17, 16, 18, 17, 13, 13, 9, 8, 21, 18, 13, 9, 6, 4, 12, 11, 11, 10, 10, 10, 24, 21, 21, 15, 13, 12, 14, 13, 12, 11, 11, 10, 20, 19, 17, 15, 15, 13, 26, 22, 18, 13, 8, 1, 18, 16, 13, 11, 10, 7, 23, 21, 21, 20, 18, 18, 28, 26, 26, 25, 23, 22, 10, 10, 10, 10, 10, 10, 17, 15, 13, 9, 8, 6, 14, 13, 12, 11, 10, 10, 23, 23, 23, 22, 22, 22, 11, 10, 8, 7, 6, 5, 18, 13, 13, 10, 9, 5, 18, 18, 18, 18, 18, 18, 13, 13, 13, 13, 13, 13, 19, 17, 17, 15, 14, 11, 9, 9, 9, 9, 9, 9, 4, 3, 3, 3, 3, 3, 18, 17, 17, 17, 15, 15, 20, 19, 17, 16, 15, 15, 23, 20, 19, 13, 12, 7, 29, 21, 21, 13, 9, 9
 |28, 23, 22, 19, 16, 15, 30, 28, 27, 26, 25, 25, 24, 24, 21, 18, 18, 14, 11, 9, 8, 6, 4, 1, 16, 14, 12, 8, 8, 5, 7, 7, 7, 7, 7, 7, 30, 29, 28, 27, 27, 26, 15, 14, 11, 9, 9, 7, 23, 20, 15, 14, 11, 6, 13, 11, 11, 7, 5, 1, 20, 20, 20, 20, 20, 20, 29, 26, 24, 22, 19, 19, 15, 11, 11, 10, 8, 5, 28, 24, 18, 14, 14, 10, 24, 21, 20, 20, 18, 17, 15, 12, 10, 7, 6, 4, 29, 24, 21, 16, 15, 10, 24, 18, 17, 10, 10, 6, 21, 19, 17, 16, 16, 15, 21, 21, 20, 18, 17, 17, 23, 16, 14, 9, 9, 4, 21, 18, 13, 12, 8, 6, 12, 12, 12, 12, 12, 12, 25, 25, 23, 21, 17, 17, 21, 16, 16, 14, 11, 8, 26, 20, 14, 11, 6, 5, 25, 21, 15, 11, 7, 5, 27, 22, 19, 16, 13, 10, 24, 21, 19, 15, 7, 6, 23, 20, 20, 17, 12, 11, 28, 27, 26, 23, 22, 18, 28, 25, 21, 15, 14, 11, 24, 20, 14, 13, 8, 5, 13, 12, 12, 12, 12, 12, 23, 21, 19, 16, 15, 12, 24, 24, 24, 24, 24, 24, 22, 22, 20, 20, 18, 18, 19, 17, 14, 13, 10, 7, 16, 13, 11, 10, 7, 6, 15, 15, 15, 15, 15, 15, 19, 19, 18, 18, 18, 17, 24, 21, 21, 17, 15, 15, 24, 21, 18, 13, 11, 9, 20, 17, 17, 13, 10, 8, 27, 26, 26, 26, 26, 26, 20, 16, 16, 14, 11, 10, 23, 21, 21, 19, 19, 18, 27, 20, 19, 15, 12, 7, 17, 15, 10, 7, 7, 3, 8, 6, 6, 3, 3, 1
 |28, 24, 22, 16, 15, 13, 28, 26, 26, 26, 24, 24, 22, 22, 18, 17, 11, 10, 18, 15, 15, 12, 9, 7, 18, 15, 12, 10, 5, 5, 9, 7, 7, 5, 5, 3, 15, 12, 9, 8, 4, 2, 22, 22, 17, 14, 10, 3, 20, 16, 14, 10, 8, 5, 19, 18, 17, 15, 14, 13, 14, 10, 8, 8, 5, 2, 24, 20, 17, 16, 15, 12, 23, 21, 19, 19, 17, 16, 25, 25, 21, 13, 8, 8, 15, 15, 15, 15, 15, 15, 17, 16, 16, 16, 16, 16, 16, 13, 13, 11, 9, 5, 21, 20, 19, 19, 18, 17, 11, 10, 9, 7, 5, 2, 12, 11, 11, 10, 10, 10, 30, 29, 29, 29, 29, 29, 15, 15, 15, 14, 14, 14, 8, 8, 8, 7, 6, 6, 15, 15, 15, 15, 14, 14, 25, 23, 21, 20, 19, 19, 16, 15, 14, 14, 13, 13, 20, 19, 19, 18, 17, 16, 23, 21, 20, 18, 17, 16, 25, 21, 15, 12, 9, 5, 13, 12, 12, 12, 11, 11, 22, 17, 15, 10, 10, 5, 20, 20, 16, 13, 10, 5, 11, 9, 9, 7, 6, 4, 19, 16, 15, 12, 10, 9, 23, 23, 23, 22, 22, 21, 5, 3, 3, 2, 1, 1, 9, 8, 6, 5, 4, 3, 27, 24, 23, 22, 18, 17, 27, 23, 19, 14, 6, 2, 16, 16, 16, 15, 15, 15, 28, 23, 21, 21, 18, 16, 9, 7, 6, 5, 4, 2, 18, 16, 14, 12, 11, 9, 20, 18, 14, 13, 7, 6, 12, 11, 10, 8, 8, 7, 26, 20, 18, 13, 11, 9, 12, 11, 10, 10, 8, 7, 25, 21, 15, 15, 6, 4, 25, 22, 20, 17, 12, 5, 24, 23, 22, 20, 17, 17
 |22, 19, 17, 14, 14, 12, 27, 26, 22, 21, 19, 18, 21, 19, 17, 14, 14, 12, 14, 14, 13, 13, 12, 12, 20, 18, 18, 15, 15, 12, 15, 12, 9, 5, 3, 3, 18, 17, 16, 16, 15, 14, 17, 14, 14, 12, 9, 7, 28, 25, 25, 22, 21, 19, 17, 15, 13, 10, 7, 5, 26, 26, 25, 22, 20, 20, 14, 14, 14, 13, 13, 13, 11, 9, 8, 7, 5, 4, 18, 16, 14, 10, 9, 5, 20, 19, 18, 18, 17, 16, 21, 21, 19, 15, 13, 11, 9, 8, 7, 7, 6, 5, 15, 14, 13, 12, 12, 11, 23, 23, 21, 21, 19, 19, 27, 27, 27, 27, 27, 27, 23, 22, 22, 21, 20, 20, 4, 3, 3, 3, 2, 2, 20, 15, 14, 10, 4, 1, 16, 15, 15, 14, 12, 12, 8, 8, 7, 7, 7, 6, 22, 16, 15, 10, 5, 3, 18, 17, 16, 13, 12, 11, 23, 17, 17, 11, 6, 5, 23, 22, 20, 19, 16, 14, 19, 18, 12, 9, 7, 5, 4, 3, 2, 2, 2, 1, 21, 19, 19, 18, 18, 17, 13, 12, 10, 10, 8, 8, 23, 23, 23, 22, 21, 21, 5, 5, 5, 4, 4, 4, 28, 21, 21, 16, 11, 7, 26, 22, 20, 16, 13, 13, 15, 15, 10, 9, 6, 2, 24, 21, 15, 14, 8, 4, 28, 25, 23, 18, 15, 13, 25, 24, 23, 21, 17, 15, 18, 17, 16, 15, 14, 14, 12, 12, 12, 12, 12, 12, 26, 25, 24, 24, 22, 22, 24, 21, 18, 15, 8, 4, 15, 12, 11, 11, 9, 8, 26, 23, 21, 19, 19, 17, 21, 21, 19, 17, 16, 16, 21, 21, 20, 20, 19, 19, 17, 15, 13, 10, 6, 5
 |17, 16, 14, 13, 10, 8, 17, 17, 17, 17, 16, 16, 16, 16, 15, 13, 12, 12, 28, 21, 17, 12, 9, 1, 5, 4, 4, 3, 2, 2, 29, 28, 27, 26, 26, 25, 11, 10, 10, 9, 9, 9, 13, 12, 12, 11, 10, 10, 14, 14, 14, 13, 12, 12, 23, 21, 19, 18, 14, 13, 18, 17, 15, 14, 14, 12, 29, 26, 25, 23, 22, 19, 28, 25, 23, 20, 18, 15, 29, 29, 29, 28, 28, 28, 14, 13, 10, 7, 5, 5, 22, 19, 19, 16, 16, 13, 27, 24, 23, 22, 18, 17, 22, 22, 19, 17, 13, 11, 21, 19, 14, 10, 8, 6, 21, 20, 15, 11, 8, 4, 19, 15, 15, 10, 8, 7, 27, 26, 22, 20, 18, 18, 20, 17, 12, 10, 6, 5, 12, 12, 12, 12, 11, 11, 28, 25, 22, 21, 18, 15, 24, 22, 22, 21, 21, 20, 12, 12, 12, 12, 11, 11, 24, 22, 21, 18, 17, 16, 8, 8, 7, 5, 5, 3, 15, 11, 11, 8, 8, 6, 21, 21, 20, 19, 18, 18, 23, 21, 17, 17, 15, 13, 24, 23, 22, 21, 20, 19, 12, 12, 9, 6, 5, 2, 27, 24, 24, 21, 19, 16, 11, 11, 11, 11, 11, 11, 29, 29, 28, 28, 26, 26, 11, 11, 11, 10, 9, 9, 17, 13, 11, 10, 9, 6, 25, 23, 23, 23, 22, 21, 29, 24, 22, 20, 19, 14, 16, 16, 16, 15, 15, 15, 10, 10, 7, 7, 5, 3, 15, 12, 9, 9, 7, 4, 6, 4, 4, 4, 2, 2, 28, 25, 25, 24, 23, 21, 16, 15, 14, 14, 13, 13, 22, 20, 18, 15, 10, 10, 14, 13, 13, 11, 10, 10, 9, 9, 7, 6, 4, 2
 |14, 13, 12, 12, 10, 10, 13, 10, 10, 8, 6, 5, 23, 21, 16, 14, 10, 9, 21, 20, 16, 14, 11, 8, 5, 5, 5, 5, 5, 5, 8, 8, 8, 7, 7, 7, 14, 14, 12, 9, 7, 5, 3, 3, 3, 3, 3, 3, 29, 27, 26, 26, 24, 24, 13, 12, 12, 12, 11, 10, 28, 27, 26, 25, 25, 23, 10, 10, 10, 10, 10, 10, 16, 13, 13, 11, 7, 6, 18, 17, 14, 11, 10, 7, 21, 20, 20, 20, 19, 18, 20, 17, 16, 15, 12, 10, 18, 16, 16, 14, 13, 13, 24, 22, 18, 14, 8, 5, 17, 15, 13, 13, 10, 10, 17, 16, 16, 15, 15, 15, 27, 27, 24, 23, 23, 21, 14, 13, 10, 9, 5, 3, 25, 24, 23, 22, 21, 21, 22, 21, 21, 20, 18, 17, 21, 19, 15, 11, 8, 4, 21, 19, 18, 15, 13, 12, 23, 22, 21, 17, 17, 13, 29, 24, 20, 17, 16, 11, 30, 22, 17, 14, 12, 6, 26, 26, 24, 21, 19, 18, 23, 22, 18, 12, 9, 3, 24, 22, 18, 16, 14, 12, 16, 14, 14, 13, 12, 11, 13, 13, 12, 11, 10, 10, 14, 10, 8, 7, 6, 2, 14, 13, 12, 11, 9, 8, 27, 27, 27, 27, 26, 26, 21, 20, 18, 16, 16, 14, 17, 14, 14, 13, 9, 9, 13, 10, 9, 6, 4, 3, 27, 27, 27, 27, 27, 27, 13, 12, 9, 9, 6, 5, 11, 9, 9, 7, 6, 6, 25, 21, 17, 12, 9, 3, 25, 25, 22, 21, 18, 15, 12, 11, 11, 11, 11, 11, 21, 18, 16, 14, 13, 11, 17, 17, 17, 16, 16, 16, 24, 23, 22, 20, 17, 16, 28, 24, 20, 17, 15, 13
 |15, 13, 12, 11, 11, 10, 6, 5, 5, 5, 4, 4, 30, 26, 21, 16, 12, 9, 20, 19, 17, 14, 14, 12, 18, 17, 16, 12, 11, 10, 29, 21, 16, 15, 6, 6, 14, 11, 8, 8, 4, 4, 27, 26, 25, 25, 23, 23, 27, 24, 22, 22, 20, 17, 20, 19, 14, 12, 9, 3, 7, 7, 7, 7, 7, 7, 20, 17, 13, 11, 9, 6, 27, 27, 27, 26, 26, 26, 13, 13, 10, 10, 9, 6, 16, 15, 14, 14, 13, 13, 9, 8, 7, 7, 5, 5, 12, 11, 11, 11, 11, 11, 11, 11, 10, 10, 10, 9, 6, 6, 6, 6, 6, 6, 16, 15, 15, 14, 14, 13, 15, 14, 13, 9, 7, 6, 6, 6, 6, 6, 6, 6, 23, 23, 22, 22, 22, 21, 23, 22, 20, 20, 18, 17, 12, 11, 11, 11, 11, 11, 18, 17, 17, 16, 16, 16, 22, 22, 20, 19, 19, 18, 17, 14, 11, 9, 5, 4, 17, 17, 15, 15, 14, 13, 19, 15, 13, 11, 10, 9, 9, 9, 9, 9, 8, 8, 8, 8, 8, 7, 7, 7, 15, 14, 13, 13, 13, 12, 17, 15, 15, 14, 13, 12, 21, 19, 19, 17, 17, 16, 23, 21, 20, 19, 18, 17, 20, 15, 14, 11, 6, 3, 13, 13, 12, 12, 12, 11, 5, 4, 4, 4, 4, 4, 26, 25, 24, 23, 22, 20, 24, 23, 21, 19, 19, 18, 8, 7, 7, 7, 7, 7, 9, 8, 7, 5, 4, 4, 20, 15, 12, 10, 5, 2, 19, 19, 19, 19, 19, 19, 17, 16, 13, 13, 9, 9, 26, 24, 17, 13, 10, 5, 14, 13, 10, 9, 8, 6, 15, 14, 11, 9, 6, 2, 25, 23, 22, 21, 20, 19
 |19, 18, 16, 16, 13, 13, 20, 17, 16, 10, 9, 3, 27, 27, 25, 25, 24, 23, 24, 22, 20, 17, 16, 14, 26, 26, 26, 26, 26, 26, 9, 8, 8, 6, 5, 5, 16, 16, 14, 13, 11, 9, 12, 12, 8, 7, 3, 1, 25, 24, 24, 22, 22, 21, 21, 19, 18, 16, 15, 14, 27, 26, 21, 19, 14, 10, 27, 25, 23, 22, 21, 18, 22, 20, 15, 12, 11, 9, 30, 29, 29, 29, 28, 28, 23, 23, 23, 23, 22, 22, 13, 12, 9, 8, 5, 5, 12, 12, 12, 12, 12, 12, 26, 23, 20, 15, 13, 10, 19, 17, 16, 15, 15, 14, 16, 14, 14, 14, 13, 12, 12, 11, 11, 10, 8, 8, 5, 5, 5, 4, 3, 3, 23, 22, 22, 20, 17, 17, 23, 15, 15, 9, 8, 2, 30, 23, 21, 17, 15, 11, 12, 11, 11, 10, 10, 10, 8, 7, 7, 6, 6, 6, 21, 21, 20, 20, 19, 19, 12, 12, 11, 10, 10, 9, 29, 29, 29, 29, 29, 29, 22, 21, 17, 14, 9, 5, 19, 18, 16, 13, 11, 8, 30, 24, 17, 12, 10, 2, 14, 12, 12, 8, 8, 4, 11, 9, 9, 6, 6, 3, 29, 24, 18, 12, 7, 6, 6, 5, 4, 3, 3, 2, 24, 24, 21, 18, 12, 12, 13, 9, 7, 6, 3, 2, 26, 24, 24, 21, 21, 19, 21, 20, 19, 18, 15, 15, 23, 23, 23, 22, 22, 22, 24, 23, 23, 22, 22, 22, 29, 25, 23, 17, 16, 10, 30, 24, 24, 20, 16, 12, 19, 15, 14, 10, 5, 1, 20, 17, 16, 12, 6, 4, 16, 13, 12, 12, 9, 9, 21, 21, 19, 19, 17, 16, 4, 3, 3, 2, 1, 1|];